# Calculation of the GW corrections
# Dataset 1: ground state calculation to get the density 
# Dataset 2: NSCF run to produce the WFK file for 10 k-points in IBZ
# Dataset 3: calculation of the screening (epsilon^-1 matrix for W)
# Dataset 4: calculation of the Self-Energy matrix elements (GW corrections)

#ndtset 4
ndtset 1
jdtset 1

############
# Dataset 1
############
# SCF-GS run 
nband1   200
tolvrs1 1.0e-10
getden_filepath1 "6H-2110_gw_o_DS1_DEN"
getwfk_filepath1 "6H-2110_gw_o_DS1_WFK"

############
# Dataset 2
############
# Definition of parameters for the calculation of the WFK file
nband2    3000       # Number of (occ and empty) bands to be computed
nbdbuf2    375       # 1/8 of nband
iscf2       -2
getden2     1
tolwfr2  1.0d-18     # Will stop when this tolerance is achieved 

############
# Dataset 3
############
# Calculation of the screening (epsilon^-1 matrix)
optdriver3   3       # Screening calculation
getwfk3     2       # Obtain WFK file from previous dataset
nband3    1500       # Bands to be used in the screening calculation (1/2 nband)
ecuteps3     5       # Cut-off energy of the planewave set to represent the dielectric matrix.  
                     # It is important to adjust this parameter.

ppmfrq3    16.7 eV   # Imaginary frequency where to calculate the screening
prtkden3    0

############
# Dataset 4
############
# Calculation of the Self-Energy matrix elements (GW corrections)
optdriver4   4       # Self-Energy calculation
getwfk4     2       # Obtain WFK file from dataset 1
getscr4     3       # Obtain SCR file from previous dataset
nband4     630       # Bands to be used in the Self-Energy calculation (3/4 nband)
ecutsigx4   25.0     # Dimension of the G sum in Sigma_x. 
                     # (the dimension in Sigma_c is controlled by ecuteps)

nkptgw4      1       # number of k-point where to calculate the GW correction
kptgw4               # k-points in reduced coordinates
   0.000    0.000    0.000
bdgw4      98   101   # calculate GW corrections for bands from 98 to 101
prtkden4   0

# Data common to the three different datasets

# Definition of the unit cell: hcp
acell      7.9353559193E+00  8.2554686409E+00  9.4486306644E+01
tolsym 1.0d-4
chkprim 0

#Definition of the atom types
ntypat 2
znucl 6 1

#Definition of the atoms
natom 56
typat 48*1 8*2
xred      4.3344978031E-01  9.1219129394E-01  3.6238197035E-01
          5.6655021969E-01  8.7808706055E-02  6.3761802965E-01
          9.3344978031E-01  8.7808706055E-02  6.3761802965E-01
          6.6550219689E-02  9.1219129394E-01  3.6238197035E-01
          6.6550219689E-02  4.1219129394E-01  6.3761802965E-01
          9.3344978031E-01  5.8780870606E-01  3.6238197035E-01
          5.6655021969E-01  5.8780870606E-01  3.6238197035E-01
          4.3344978031E-01  4.1219129394E-01  6.3761802965E-01
          4.3744302873E-01  9.1688783959E-01  4.1208631501E-01
          5.6255697127E-01  8.3112160412E-02  5.8791368499E-01
          9.3744302873E-01  8.3112160412E-02  5.8791368499E-01
          6.2556971266E-02  9.1688783959E-01  4.1208631501E-01
          6.2556971266E-02  4.1688783959E-01  5.8791368499E-01
          9.3744302873E-01  5.8311216041E-01  4.1208631501E-01
          5.6255697127E-01  5.8311216041E-01  4.1208631501E-01
          4.3744302873E-01  4.1688783959E-01  5.8791368499E-01
          4.3728677665E-01  9.1662192921E-01  4.6232088905E-01
          5.6271322335E-01  8.3378070795E-02  5.3767911095E-01
          9.3728677665E-01  8.3378070795E-02  5.3767911095E-01
          6.2713223349E-02  9.1662192921E-01  4.6232088905E-01
          6.2713223349E-02  4.1662192921E-01  5.3767911095E-01
          9.3728677665E-01  5.8337807079E-01  4.6232088905E-01
          5.6271322335E-01  5.8337807079E-01  4.6232088905E-01
          4.3728677665E-01  4.1662192921E-01  5.3767911095E-01
          4.3728502457E-01  9.1662973842E-01  5.1255981913E-01
          5.6271497543E-01  8.3370261584E-02  4.8744018087E-01
          9.3728502457E-01  8.3370261584E-02  4.8744018087E-01
          6.2714975432E-02  9.1662973842E-01  5.1255981913E-01
          6.2714975432E-02  4.1662973842E-01  4.8744018087E-01
          9.3728502457E-01  5.8337026158E-01  5.1255981913E-01
          5.6271497543E-01  5.8337026158E-01  5.1255981913E-01
          4.3728502457E-01  4.1662973842E-01  4.8744018087E-01
          4.3727250996E-01  9.1662168139E-01  5.6279641045E-01
          5.6272749004E-01  8.3378318608E-02  4.3720358955E-01
          9.3727250996E-01  8.3378318608E-02  4.3720358955E-01
          6.2727490045E-02  9.1662168139E-01  5.6279641045E-01
          6.2727490045E-02  4.1662168139E-01  4.3720358955E-01
          9.3727250996E-01  5.8337831861E-01  5.6279641045E-01
          5.6272749004E-01  5.8337831861E-01  5.6279641045E-01
          4.3727250996E-01  4.1662168139E-01  4.3720358955E-01
          4.3712711634E-01  9.1597522418E-01  6.1310263315E-01
          5.6287288366E-01  8.4024775815E-02  3.8689736685E-01
          9.3712711634E-01  8.4024775815E-02  3.8689736685E-01
          6.2872883655E-02  9.1597522418E-01  6.1310263315E-01
          6.2872883655E-02  4.1597522418E-01  3.8689736685E-01
          9.3712711634E-01  5.8402477582E-01  6.1310263315E-01
          5.6287288366E-01  5.8402477582E-01  6.1310263315E-01
          4.3712711634E-01  4.1597522418E-01  3.8689736685E-01
          4.8579144804E-01  9.7346861475E-01  6.5591121733E-01
          5.1420855196E-01  2.6531385246E-02  3.4408878267E-01
          9.8579144804E-01  2.6531385246E-02  3.4408878267E-01
          1.4208551964E-02  9.7346861475E-01  6.5591121733E-01
          1.4208551964E-02  4.7346861475E-01  3.4408878267E-01
          9.8579144804E-01  5.2653138525E-01  6.5591121733E-01
          5.1420855196E-01  5.2653138525E-01  6.5591121733E-01
          4.8579144804E-01  4.7346861475E-01  3.4408878267E-01

# Definition of the k-point grid
ngkpt 6 6 1
kptopt  1
nshiftk 1
shiftk    0.0 0.0 0.0
istwfk *1         # This is mandatory in all the GW steps.

# Definition of the planewave basis set (at convergence 16 Rydberg 8 Hartree)
ecut 50.0         # Maximal kinetic energy cut-off, in Hartree

# Definition of the SCF procedure
nstep   100       # Maximal number of SCF cycles
toldfe  1.0d-8    # Will stop when this tolerance is achieved on total energy
diemac  12.0
ixc -208012
usekden 1
gw_icutcoul 2
vcutgeo 1 1 0
