# Calculation of the GW corrections
# Dataset 1: ground state calculation to get the density 
# Dataset 2: NSCF run to produce the WFK file for 10 k-points in IBZ
# Dataset 3: calculation of the screening (epsilon^-1 matrix for W)
# Dataset 4: calculation of the Self-Energy matrix elements (GW corrections)
#
ndtset 2
jdtset 3 4

paral_kgb 1
npkpt 16
npband 4

#ndtset 4

############
# Dataset 1
############
# SCF-GS run 
nband1  104
tolvrs1 1.0e-10

############
# Dataset 2
############
# Definition of parameters for the calculation of the WFK file
nband2    1704       # Number of (occ and empty) bands to be computed
nbdbuf2    213       # 1/8 of nband
iscf2       -2
getden2     1
tolwfr2  1.0d-18     # Will stop when this tolerance is achieved 

############
# Dataset 3
############
# Calculation of the screening (epsilon^-1 matrix)
optdriver3   3       # Screening calculation
getwfk3     2       # Obtain WFK file from previous dataset
nband3     852       # Bands to be used in the screening calculation (1/2 nband)
ecuteps3     5       # Cut-off energy of the planewave set to represent the dielectric matrix.  
                     # It is important to adjust this parameter.

ppmfrq3    16.7 eV   # Imaginary frequency where to calculate the screening
prtkden3    0

############
# Dataset 4
############
# Calculation of the Self-Energy matrix elements (GW corrections)
optdriver4   4       # Self-Energy calculation
getwfk4      2       # Obtain WFK file from dataset 1
getscr4     3       # Obtain SCR file from previous dataset
nband4    1278       # Bands to be used in the Self-Energy calculation (3/4 nband)
ecutsigx4   25.0     # Dimension of the G sum in Sigma_x. 
                     # (the dimension in Sigma_c is controlled by ecuteps)

nkptgw4      1       # number of k-point where to calculate the GW correction
kptgw4               # k-points in reduced coordinates
   0.000    0.000    0.000
bdgw4      50    53   # calculate GW corrections for bands from 8 to 11
prtkden4   0

# Data common to the three different datasets

# Definition of the unit cell: fcc
acell      7.9710703563E+00  8.2924089954E+00  8.1258223714E+01
tolsym 1.0d-4
chkprim 0

#Definition of the atom types
ntypat 2
znucl 6 1

#Definition of the atoms
natom 32
typat 24*1 8*2
xred      4.3324581734E-01  4.1175070773E-01  4.2767932555E-01
          5.6675418266E-01  5.8824929227E-01  5.7232067445E-01
          9.3324581734E-01  5.8824929227E-01  5.7232067445E-01
          6.6754182665E-02  4.1175070773E-01  4.2767932555E-01
          6.6754182665E-02  9.1175070773E-01  5.7232067445E-01
          9.3324581734E-01  8.8249292265E-02  4.2767932555E-01
          5.6675418266E-01  8.8249292265E-02  4.2767932555E-01
          4.3324581734E-01  9.1175070773E-01  5.7232067445E-01
          4.3748348335E-01  4.1686986763E-01  4.8540413389E-01
          5.6251651665E-01  5.8313013237E-01  5.1459586611E-01
          9.3748348335E-01  5.8313013237E-01  5.1459586611E-01
          6.2516516649E-02  4.1686986763E-01  4.8540413389E-01
          6.2516516649E-02  9.1686986763E-01  5.1459586611E-01
          9.3748348335E-01  8.3130132372E-02  4.8540413389E-01
          5.6251651665E-01  8.3130132372E-02  4.8540413389E-01
          4.3748348335E-01  9.1686986763E-01  5.1459586611E-01
          4.3715075520E-01  4.1585186376E-01  5.4387563026E-01
          5.6284924480E-01  5.8414813624E-01  4.5612436974E-01
          9.3715075520E-01  5.8414813624E-01  4.5612436974E-01
          6.2849244800E-02  4.1585186376E-01  5.4387563026E-01
          6.2849244800E-02  9.1585186376E-01  4.5612436974E-01
          9.3715075520E-01  8.4148136238E-02  5.4387563026E-01
          5.6284924480E-01  8.4148136238E-02  5.4387563026E-01
          4.3715075520E-01  9.1585186376E-01  4.5612436974E-01
          1.3071055019E-02  9.7482114490E-01  4.0635408952E-01
          9.8692894498E-01  2.5178855101E-02  5.9364591048E-01
          5.1307105502E-01  2.5178855101E-02  5.9364591048E-01
          4.8692894498E-01  9.7482114490E-01  4.0635408952E-01
          4.8692894498E-01  4.7482114490E-01  5.9364591048E-01
          5.1307105502E-01  5.2517885510E-01  4.0635408952E-01
          9.8692894498E-01  5.2517885510E-01  4.0635408952E-01
          1.3071055019E-02  4.7482114490E-01  5.9364591048E-01

# Definition of the k-point grid
ngkpt 6 6 1
kptopt  1
nshiftk 1
shiftk    0.0 0.0 0.0
istwfk *1         # This is mandatory in all the GW steps.

# Definition of the planewave basis set (at convergence 16 Rydberg 8 Hartree)
ecut 50.0         # Maximal kinetic energy cut-off, in Hartree

# Definition of the SCF procedure
nstep   100       # Maximal number of SCF cycles
toldfe  1.0d-8    # Will stop when this tolerance is achieved on total energy
diemac  12.0
ixc -208012
usekden 1
gw_icutcoul 2
vcutgeo 1 1 0
