# Calculation of the GW corrections
# Dataset 1: ground state calculation to get the density 
# Dataset 2: NSCF run to produce the WFK file for 10 k-points in IBZ
# Dataset 3: calculation of the screening (epsilon^-1 matrix for W)
# Dataset 4: calculation of the Self-Energy matrix elements (GW corrections)

#ndtset 1
#jdtset 2

#paral_kgb 1
#autoparal 1
#npkpt 16
#npband 4
#
ndtset 1
jdtset 4

############
# Dataset 1
############
# SCF-GS run 
nband1  168
tolvrs1 1.0e-10

############
# Dataset 2
############
# Definition of parameters for the calculation of the WFK file
nband2    2568       # Number of (occ and empty) bands to be computed
nbdbuf2    321       # 1/8 of nband
iscf2       -2
getden2     1
tolwfr2  1.0d-18     # Will stop when this tolerance is achieved 

############
# Dataset 3
############
# Calculation of the screening (epsilon^-1 matrix)
optdriver3   3       # Screening calculation
getwfk3     2      # Obtain WFK file from previous dataset
nband3    1284       # Bands to be used in the screening calculation (1/2 nband)
ecuteps3     5       # Cut-off energy of the planewave set to represent the dielectric matrix.  
                     # It is important to adjust this parameter.

ppmfrq3    16.7 eV   # Imaginary frequency where to calculate the screening
prtkden3    0

############
# Dataset 4
############
# Calculation of the Self-Energy matrix elements (GW corrections)
optdriver4   4       # Self-Energy calculation
getwfk4     2       # Obtain WFK file from dataset 1
getscr4     3       # Obtain SCR file from previous dataset
nband4    1926       # Bands to be used in the Self-Energy calculation (3/4 nband)
ecutsigx4   25.0     # Dimension of the G sum in Sigma_x. 
                     # (the dimension in Sigma_c is controlled by ecuteps)

nkptgw4      1       # number of k-point where to calculate the GW correction
kptgw4               # k-points in reduced coordinates
   0.000    0.000    0.000
bdgw4      82    85   # calculate GW corrections for bands from 82 to 85
prtkden4   0

# Data common to the three different datasets

# Definition of the unit cell: fcc
acell      7.9423772092E+00  8.2625279720E+00  8.8817128246E+01
tolsym 1.0d-4
chkprim 0

#Definition of the atom types
ntypat 2
znucl 6 1

#Definition of the atoms
natom 48
typat 40*1 8*2
xred      4.3341439180E-01  4.1211898159E-01  3.8033605420E-01
          5.6658560820E-01  5.8788101841E-01  6.1966394580E-01
          9.3341439180E-01  5.8788101841E-01  6.1966394580E-01
          6.6585608200E-02  4.1211898159E-01  3.8033605420E-01
          6.6585608200E-02  9.1211898159E-01  6.1966394580E-01
          9.3341439180E-01  8.7881018405E-02  3.8033605420E-01
          5.6658560820E-01  8.7881018405E-02  3.8033605420E-01
          4.3341439180E-01  9.1211898159E-01  6.1966394580E-01
          4.3745029537E-01  4.1687876647E-01  4.3320195510E-01
          5.6254970463E-01  5.8312123353E-01  5.6679804490E-01
          9.3745029537E-01  5.8312123353E-01  5.6679804490E-01
          6.2549704626E-02  4.1687876647E-01  4.3320195510E-01
          6.2549704626E-02  9.1687876647E-01  5.6679804490E-01
          9.3745029537E-01  8.3121233526E-02  4.3320195510E-01
          5.6254970463E-01  8.3121233526E-02  4.3320195510E-01
          4.3745029537E-01  9.1687876647E-01  5.6679804490E-01
          4.3729361783E-01  4.1661877748E-01  4.8663950623E-01
          5.6270638217E-01  5.8338122252E-01  5.1336049377E-01
          9.3729361783E-01  5.8338122252E-01  5.1336049377E-01
          6.2706382172E-02  4.1661877748E-01  4.8663950623E-01
          6.2706382172E-02  9.1661877748E-01  5.1336049377E-01
          9.3729361783E-01  8.3381222520E-02  4.8663950623E-01
          5.6270638217E-01  8.3381222520E-02  4.8663950623E-01
          4.3729361783E-01  9.1661877748E-01  5.1336049377E-01
          4.3728246980E-01  4.1661841567E-01  5.4007978212E-01
          5.6271753020E-01  5.8338158433E-01  4.5992021788E-01
          9.3728246980E-01  5.8338158433E-01  4.5992021788E-01
          6.2717530202E-02  4.1661841567E-01  5.4007978212E-01
          6.2717530202E-02  9.1661841567E-01  4.5992021788E-01
          9.3728246980E-01  8.3381584328E-02  5.4007978212E-01
          5.6271753020E-01  8.3381584328E-02  5.4007978212E-01
          4.3728246980E-01  9.1661841567E-01  4.5992021788E-01
          4.3712853247E-01  4.1595139636E-01  5.9359221358E-01
          5.6287146753E-01  5.8404860364E-01  4.0640778642E-01
          9.3712853247E-01  5.8404860364E-01  4.0640778642E-01
          6.2871467526E-02  4.1595139636E-01  5.9359221358E-01
          6.2871467526E-02  9.1595139636E-01  4.0640778642E-01
          9.3712853247E-01  8.4048603638E-02  5.9359221358E-01
          5.6287146753E-01  8.4048603638E-02  5.9359221358E-01
          4.3712853247E-01  9.1595139636E-01  4.0640778642E-01
          5.1399087737E-01  5.2630062758E-01  3.6086675153E-01
          4.8600912263E-01  4.7369937242E-01  6.3913324847E-01
          1.3990877369E-02  4.7369937242E-01  6.3913324847E-01
          9.8600912263E-01  5.2630062758E-01  3.6086675153E-01
          9.8600912263E-01  2.6300627577E-02  6.3913324847E-01
          1.3990877369E-02  9.7369937242E-01  3.6086675153E-01
          4.8600912263E-01  9.7369937242E-01  3.6086675153E-01
          5.1399087737E-01  2.6300627577E-02  6.3913324847E-01

# Definition of the k-point grid
ngkpt 6 6 1
kptopt  1
nshiftk 1
shiftk    0.0 0.0 0.0
istwfk *1         # This is mandatory in all the GW steps.

# Definition of the planewave basis set (at convergence 16 Rydberg 8 Hartree)
ecut 50.0         # Maximal kinetic energy cut-off, in Hartree

# Definition of the SCF procedure
nstep   100       # Maximal number of SCF cycles
toldfe  1.0d-8    # Will stop when this tolerance is achieved on total energy
diemac  12.0
ixc -208012
usekden 1
gw_icutcoul 2
vcutgeo 1 1 0
