# Calculation of the GW corrections
# Dataset 1: ground state calculation to get the density 
# Dataset 2: NSCF run to produce the WFK file for 10 k-points in IBZ
# Dataset 3: calculation of the screening (epsilon^-1 matrix for W)
# Dataset 4: calculation of the Self-Energy matrix elements (GW corrections)

ndtset 1
jdtset 2

paral_kgb 1
npkpt 16
npband 4

############
# Dataset 1
############
# SCF-GS run 
nband1   184
tolvrs1 1.0e-10

############
# Dataset 2
############
# Definition of parameters for the calculation of the WFK file
nband2    2184       # Number of (occ and empty) bands to be computed
nbdbuf2    273       # 1/8 of nband
iscf2       -2
getden2     1
tolwfr2  1.0d-18     # Will stop when this tolerance is achieved 

############
# Dataset 3
############
# Calculation of the screening (epsilon^-1 matrix)
optdriver3   3       # Screening calculation
getwfk3     2       # Obtain WFK file from previous dataset
nband3    1092       # Bands to be used in the screening calculation (1/2 nband)
ecuteps3     5       # Cut-off energy of the planewave set to represent the dielectric matrix.  
                     # It is important to adjust this parameter.

ppmfrq3    16.7 eV   # Imaginary frequency where to calculate the screening
prtkden3    0

############
# Dataset 4
############
# Calculation of the Self-Energy matrix elements (GW corrections)
optdriver4   4       # Self-Energy calculation
getwfk4     2       # Obtain WFK file from dataset 1
getscr4     3       # Obtain SCR file from previous dataset
nband4    1638       # Bands to be used in the Self-Energy calculation (3/4 nband)
ecutsigx4   25.0     # Dimension of the G sum in Sigma_x. 
                     # (the dimension in Sigma_c is controlled by ecuteps)

nkptgw4      1       # number of k-point where to calculate the GW correction
kptgw4               # k-points in reduced coordinates
   0.000    0.000    0.000
bdgw4      90   93   # calculate GW corrections for bands from 90 to 93
prtkden4   0

# Data common to the three different datasets

# Definition of the unit cell: fcc
acell      8.1495829326E+00  8.4985343024E+00  8.5037675980E+01
tolsym 1.0d-4
chkprim 0

#Definition of the atom types
ntypat 2
znucl 6 9

#Definition of the atoms
natom 40
typat 32*1 8*2
xred      9.3217325983E-01  4.0658902160E-01  4.0421377658E-01
          6.7826740168E-02  5.9341097840E-01  5.9578622342E-01
          4.3217325983E-01  5.9341097840E-01  5.9578622342E-01
          5.6782674017E-01  4.0658902160E-01  4.0421377658E-01
          5.6782674017E-01  9.0658902160E-01  5.9578622342E-01
          4.3217325983E-01  9.3410978399E-02  4.0421377658E-01
          6.7826740168E-02  9.3410978399E-02  4.0421377658E-01
          9.3217325983E-01  9.0658902160E-01  5.9578622342E-01
          9.3791934617E-01  4.1691110073E-01  4.5822521400E-01
          6.2080653828E-02  5.8308889927E-01  5.4177478600E-01
          4.3791934617E-01  5.8308889927E-01  5.4177478600E-01
          5.6208065383E-01  4.1691110073E-01  4.5822521400E-01
          5.6208065383E-01  9.1691110073E-01  5.4177478600E-01
          4.3791934617E-01  8.3088899271E-02  4.5822521400E-01
          6.2080653828E-02  8.3088899271E-02  4.5822521400E-01
          9.3791934617E-01  9.1691110073E-01  5.4177478600E-01
          9.3766486087E-01  4.1660266278E-01  5.1392427961E-01
          6.2335139129E-02  5.8339733722E-01  4.8607572039E-01
          4.3766486087E-01  5.8339733722E-01  4.8607572039E-01
          5.6233513913E-01  4.1660266278E-01  5.1392427961E-01
          5.6233513913E-01  9.1660266278E-01  4.8607572039E-01
          4.3766486087E-01  8.3397337222E-02  5.1392427961E-01
          6.2335139129E-02  8.3397337222E-02  5.1392427961E-01
          9.3766486087E-01  9.1660266278E-01  4.8607572039E-01
          9.3585039935E-01  4.1299439529E-01  5.6968653955E-01
          6.4149600651E-02  5.8700560471E-01  4.3031346045E-01
          4.3585039935E-01  5.8700560471E-01  4.3031346045E-01
          5.6414960065E-01  4.1299439529E-01  5.6968653955E-01
          5.6414960065E-01  9.1299439529E-01  4.3031346045E-01
          4.3585039935E-01  8.7005604709E-02  5.6968653955E-01
          6.4149600651E-02  8.7005604709E-02  5.6968653955E-01
          9.3585039935E-01  9.1299439529E-01  4.3031346045E-01
          1.0002052933E+00  4.9309633936E-01  6.2329735426E-01
         -2.0529334231E-04  5.0690366064E-01  3.7670264574E-01
          5.0020529334E-01  5.0690366064E-01  3.7670264574E-01
          4.9979470666E-01  4.9309633936E-01  6.2329735426E-01
          4.9979470666E-01  9.9309633936E-01  3.7670264574E-01
          5.0020529334E-01  6.9036606423E-03  6.2329735426E-01
         -2.0529334231E-04  6.9036606423E-03  6.2329735426E-01
          1.0002052933E+00  9.9309633936E-01  3.7670264574E-01

# Definition of the k-point grid
ngkpt 6 6 1
kptopt  1
nshiftk 1
shiftk    0.0 0.0 0.0
istwfk *1         # This is mandatory in all the GW steps.

# Definition of the planewave basis set (at convergence 16 Rydberg 8 Hartree)
ecut 50.0         # Maximal kinetic energy cut-off, in Hartree

# Definition of the SCF procedure
nstep   100       # Maximal number of SCF cycles
toldfe  1.0d-8    # Will stop when this tolerance is achieved on total energy
diemac  12.0
ixc -208012
usekden 1
gw_icutcoul 2
vcutgeo 1 1 0
